NAME: cum10.tsp
TYPE: TSP
COMMENT: User-generated TSP file
DIMENSION: 50
EDGE_WEIGHT_TYPE: EUC_2D
NODE_COORD_SECTION
1 31.0 37.0
2 31.0 10.0
3 20.0 39.0
4 1.0 32.0
5 1.0 31.0
6 44.0 41.0
7 45.0 19.0
8 40.0 46.0
9 41.0 49.0
10 9.0 22.0
11 1.0 45.0
12 11.0 22.0
13 29.0 18.0
14 2.0 41.0
15 35.0 22.0
16 12.0 43.0
17 42.0 26.0
18 4.0 24.0
19 24.0 16.0
20 39.0 33.0
21 3.0 9.0
22 16.0 41.0
23 24.0 50.0
24 7.0 12.0
25 22.0 30.0
26 13.0 20.0
27 9.0 38.0
28 12.0 2.0
29 17.0 38.0
30 9.0 2.0
31 9.0 31.0
32 25.0 46.0
33 20.0 33.0
34 43.0 15.0
35 26.0 49.0
36 25.0 46.0
37 2.0 8.0
38 15.0 15.0
39 30.0 27.0
40 30.0 31.0
41 1.0 10.0
42 31.0 48.0
43 32.0 32.0
44 10.0 4.0
45 19.0 14.0
46 5.0 42.0
47 28.0 5.0
48 37.0 11.0
49 35.0 16.0
50 31.0 30.0
EOF

